18126
100001000001011001011000110001
20 0 13 14 20 5 19 24 19 17 24 14 14 20 19 14 14 17 5 11 19 0 24 25 24 20 19 24 11 11 5 25 13 11 20 20 24 24 0 14 0 14 24 17 24 14 0 13 11 20 25 14 14 5 13 13 0 11 17 14 17 5 20 5 11 11 5 0 11 24 20 13 5 0 24 20 29 20 20 5 20 5 13 17 0 17 14 11 20 29 17 5 0 0 0 5 14 14 29 20 19 25 17 11 19 29 0 0 19 14 14 14 0 11 11 5 24 24 24 24 5 20 0 13 20 0 25 24 0 24 0 11 24 29 0 14 0 5 20 17 0 14 20 14 20 11 25 5 0 24 